\ Model Truck_Routing
\ LP format - for model browsing. Use MPS format to capture full model detail.
Minimize
  537.5 x[V1,D0,C1] + 655 x[V1,D0,C2] + 787.5 x[V1,D0,C3] + 380 x[V1,D0,C4]
   + 545 x[V1,D0,C5] + 125 x[V1,D0,C6] + 605 x[V1,D0,C7]
   + 297.5 x[V1,D0,C8] + 312.5 x[V1,D0,C9] + 252.5 x[V1,D0,C10]
   + 537.5 x[V1,C1,D0] + 162.5 x[V1,C1,C2] + 295 x[V1,C1,C3]
   + 752.5 x[V1,C1,C4] + 72.5 x[V1,C1,C5] + 417.5 x[V1,C1,C6]
   + 422.5 x[V1,C1,C7] + 420 x[V1,C1,C8] + 225 x[V1,C1,C9]
   + 435 x[V1,C1,C10] + 655 x[V1,C2,D0] + 162.5 x[V1,C2,C1]
   + 132.5 x[V1,C2,C3] + 800 x[V1,C2,C4] + 235 x[V1,C2,C5]
   + 580 x[V1,C2,C6] + 470 x[V1,C2,C7] + 467.5 x[V1,C2,C8]
   + 357.5 x[V1,C2,C9] + 482.5 x[V1,C2,C10] + 787.5 x[V1,C3,D0]
   + 295 x[V1,C3,C1] + 132.5 x[V1,C3,C2] + 687.5 x[V1,C3,C4]
   + 367.5 x[V1,C3,C5] + 712.5 x[V1,C3,C6] + 357.5 x[V1,C3,C7]
   + 490 x[V1,C3,C8] + 490 x[V1,C3,C9] + 535 x[V1,C3,C10] + 380 x[V1,C4,D0]
   + 752.5 x[V1,C4,C1] + 800 x[V1,C4,C2] + 687.5 x[V1,C4,C3]
   + 760 x[V1,C4,C5] + 340 x[V1,C4,C6] + 330 x[V1,C4,C7]
   + 332.5 x[V1,C4,C8] + 527.5 x[V1,C4,C9] + 317.5 x[V1,C4,C10]
   + 545 x[V1,C5,D0] + 72.5 x[V1,C5,C1] + 235 x[V1,C5,C2]
   + 367.5 x[V1,C5,C3] + 760 x[V1,C5,C4] + 420 x[V1,C5,C6]
   + 430 x[V1,C5,C7] + 427.5 x[V1,C5,C8] + 232.5 x[V1,C5,C9]
   + 442.5 x[V1,C5,C10] + 125 x[V1,C6,D0] + 417.5 x[V1,C6,C1]
   + 580 x[V1,C6,C2] + 712.5 x[V1,C6,C3] + 340 x[V1,C6,C4]
   + 420 x[V1,C6,C5] + 530 x[V1,C6,C7] + 222.5 x[V1,C6,C8]
   + 222.5 x[V1,C6,C9] + 177.5 x[V1,C6,C10] + 605 x[V1,C7,D0]
   + 422.5 x[V1,C7,C1] + 470 x[V1,C7,C2] + 357.5 x[V1,C7,C3]
   + 330 x[V1,C7,C4] + 430 x[V1,C7,C5] + 530 x[V1,C7,C6]
   + 307.5 x[V1,C7,C8] + 307.5 x[V1,C7,C9] + 352.5 x[V1,C7,C10]
   + 297.5 x[V1,C8,D0] + 420 x[V1,C8,C1] + 467.5 x[V1,C8,C2]
   + 490 x[V1,C8,C3] + 332.5 x[V1,C8,C4] + 427.5 x[V1,C8,C5]
   + 222.5 x[V1,C8,C6] + 307.5 x[V1,C8,C7] + 195 x[V1,C8,C9]
   + 45 x[V1,C8,C10] + 312.5 x[V1,C9,D0] + 225 x[V1,C9,C1]
   + 357.5 x[V1,C9,C2] + 490 x[V1,C9,C3] + 527.5 x[V1,C9,C4]
   + 232.5 x[V1,C9,C5] + 222.5 x[V1,C9,C6] + 307.5 x[V1,C9,C7]
   + 195 x[V1,C9,C8] + 210 x[V1,C9,C10] + 252.5 x[V1,C10,D0]
   + 435 x[V1,C10,C1] + 482.5 x[V1,C10,C2] + 535 x[V1,C10,C3]
   + 317.5 x[V1,C10,C4] + 442.5 x[V1,C10,C5] + 177.5 x[V1,C10,C6]
   + 352.5 x[V1,C10,C7] + 45 x[V1,C10,C8] + 210 x[V1,C10,C9]
   + 537.5 x[V2,D0,C1] + 655 x[V2,D0,C2] + 787.5 x[V2,D0,C3]
   + 380 x[V2,D0,C4] + 545 x[V2,D0,C5] + 125 x[V2,D0,C6] + 605 x[V2,D0,C7]
   + 297.5 x[V2,D0,C8] + 312.5 x[V2,D0,C9] + 252.5 x[V2,D0,C10]
   + 537.5 x[V2,C1,D0] + 162.5 x[V2,C1,C2] + 295 x[V2,C1,C3]
   + 752.5 x[V2,C1,C4] + 72.5 x[V2,C1,C5] + 417.5 x[V2,C1,C6]
   + 422.5 x[V2,C1,C7] + 420 x[V2,C1,C8] + 225 x[V2,C1,C9]
   + 435 x[V2,C1,C10] + 655 x[V2,C2,D0] + 162.5 x[V2,C2,C1]
   + 132.5 x[V2,C2,C3] + 800 x[V2,C2,C4] + 235 x[V2,C2,C5]
   + 580 x[V2,C2,C6] + 470 x[V2,C2,C7] + 467.5 x[V2,C2,C8]
   + 357.5 x[V2,C2,C9] + 482.5 x[V2,C2,C10] + 787.5 x[V2,C3,D0]
   + 295 x[V2,C3,C1] + 132.5 x[V2,C3,C2] + 687.5 x[V2,C3,C4]
   + 367.5 x[V2,C3,C5] + 712.5 x[V2,C3,C6] + 357.5 x[V2,C3,C7]
   + 490 x[V2,C3,C8] + 490 x[V2,C3,C9] + 535 x[V2,C3,C10] + 380 x[V2,C4,D0]
   + 752.5 x[V2,C4,C1] + 800 x[V2,C4,C2] + 687.5 x[V2,C4,C3]
   + 760 x[V2,C4,C5] + 340 x[V2,C4,C6] + 330 x[V2,C4,C7]
   + 332.5 x[V2,C4,C8] + 527.5 x[V2,C4,C9] + 317.5 x[V2,C4,C10]
   + 545 x[V2,C5,D0] + 72.5 x[V2,C5,C1] + 235 x[V2,C5,C2]
   + 367.5 x[V2,C5,C3] + 760 x[V2,C5,C4] + 420 x[V2,C5,C6]
   + 430 x[V2,C5,C7] + 427.5 x[V2,C5,C8] + 232.5 x[V2,C5,C9]
   + 442.5 x[V2,C5,C10] + 125 x[V2,C6,D0] + 417.5 x[V2,C6,C1]
   + 580 x[V2,C6,C2] + 712.5 x[V2,C6,C3] + 340 x[V2,C6,C4]
   + 420 x[V2,C6,C5] + 530 x[V2,C6,C7] + 222.5 x[V2,C6,C8]
   + 222.5 x[V2,C6,C9] + 177.5 x[V2,C6,C10] + 605 x[V2,C7,D0]
   + 422.5 x[V2,C7,C1] + 470 x[V2,C7,C2] + 357.5 x[V2,C7,C3]
   + 330 x[V2,C7,C4] + 430 x[V2,C7,C5] + 530 x[V2,C7,C6]
   + 307.5 x[V2,C7,C8] + 307.5 x[V2,C7,C9] + 352.5 x[V2,C7,C10]
   + 297.5 x[V2,C8,D0] + 420 x[V2,C8,C1] + 467.5 x[V2,C8,C2]
   + 490 x[V2,C8,C3] + 332.5 x[V2,C8,C4] + 427.5 x[V2,C8,C5]
   + 222.5 x[V2,C8,C6] + 307.5 x[V2,C8,C7] + 195 x[V2,C8,C9]
   + 45 x[V2,C8,C10] + 312.5 x[V2,C9,D0] + 225 x[V2,C9,C1]
   + 357.5 x[V2,C9,C2] + 490 x[V2,C9,C3] + 527.5 x[V2,C9,C4]
   + 232.5 x[V2,C9,C5] + 222.5 x[V2,C9,C6] + 307.5 x[V2,C9,C7]
   + 195 x[V2,C9,C8] + 210 x[V2,C9,C10] + 252.5 x[V2,C10,D0]
   + 435 x[V2,C10,C1] + 482.5 x[V2,C10,C2] + 535 x[V2,C10,C3]
   + 317.5 x[V2,C10,C4] + 442.5 x[V2,C10,C5] + 177.5 x[V2,C10,C6]
   + 352.5 x[V2,C10,C7] + 45 x[V2,C10,C8] + 210 x[V2,C10,C9] + 500 y[V1]
   + 500 y[V2]
Subject To
 Each_customer_visited_once: x[V1,D0,C1] + x[V1,C2,C1] + x[V1,C3,C1]
   + x[V1,C4,C1] + x[V1,C5,C1] + x[V1,C6,C1] + x[V1,C7,C1] + x[V1,C8,C1]
   + x[V1,C9,C1] + x[V1,C10,C1] + x[V2,D0,C1] + x[V2,C2,C1] + x[V2,C3,C1]
   + x[V2,C4,C1] + x[V2,C5,C1] + x[V2,C6,C1] + x[V2,C7,C1] + x[V2,C8,C1]
   + x[V2,C9,C1] + x[V2,C10,C1] = 1
 Each_customer_visited_once: x[V1,D0,C2] + x[V1,C1,C2] + x[V1,C3,C2]
   + x[V1,C4,C2] + x[V1,C5,C2] + x[V1,C6,C2] + x[V1,C7,C2] + x[V1,C8,C2]
   + x[V1,C9,C2] + x[V1,C10,C2] + x[V2,D0,C2] + x[V2,C1,C2] + x[V2,C3,C2]
   + x[V2,C4,C2] + x[V2,C5,C2] + x[V2,C6,C2] + x[V2,C7,C2] + x[V2,C8,C2]
   + x[V2,C9,C2] + x[V2,C10,C2] = 1
 Each_customer_visited_once: x[V1,D0,C3] + x[V1,C1,C3] + x[V1,C2,C3]
   + x[V1,C4,C3] + x[V1,C5,C3] + x[V1,C6,C3] + x[V1,C7,C3] + x[V1,C8,C3]
   + x[V1,C9,C3] + x[V1,C10,C3] + x[V2,D0,C3] + x[V2,C1,C3] + x[V2,C2,C3]
   + x[V2,C4,C3] + x[V2,C5,C3] + x[V2,C6,C3] + x[V2,C7,C3] + x[V2,C8,C3]
   + x[V2,C9,C3] + x[V2,C10,C3] = 1
 Each_customer_visited_once: x[V1,D0,C4] + x[V1,C1,C4] + x[V1,C2,C4]
   + x[V1,C3,C4] + x[V1,C5,C4] + x[V1,C6,C4] + x[V1,C7,C4] + x[V1,C8,C4]
   + x[V1,C9,C4] + x[V1,C10,C4] + x[V2,D0,C4] + x[V2,C1,C4] + x[V2,C2,C4]
   + x[V2,C3,C4] + x[V2,C5,C4] + x[V2,C6,C4] + x[V2,C7,C4] + x[V2,C8,C4]
   + x[V2,C9,C4] + x[V2,C10,C4] = 1
 Each_customer_visited_once: x[V1,D0,C5] + x[V1,C1,C5] + x[V1,C2,C5]
   + x[V1,C3,C5] + x[V1,C4,C5] + x[V1,C6,C5] + x[V1,C7,C5] + x[V1,C8,C5]
   + x[V1,C9,C5] + x[V1,C10,C5] + x[V2,D0,C5] + x[V2,C1,C5] + x[V2,C2,C5]
   + x[V2,C3,C5] + x[V2,C4,C5] + x[V2,C6,C5] + x[V2,C7,C5] + x[V2,C8,C5]
   + x[V2,C9,C5] + x[V2,C10,C5] = 1
 Each_customer_visited_once: x[V1,D0,C6] + x[V1,C1,C6] + x[V1,C2,C6]
   + x[V1,C3,C6] + x[V1,C4,C6] + x[V1,C5,C6] + x[V1,C7,C6] + x[V1,C8,C6]
   + x[V1,C9,C6] + x[V1,C10,C6] + x[V2,D0,C6] + x[V2,C1,C6] + x[V2,C2,C6]
   + x[V2,C3,C6] + x[V2,C4,C6] + x[V2,C5,C6] + x[V2,C7,C6] + x[V2,C8,C6]
   + x[V2,C9,C6] + x[V2,C10,C6] = 1
 Each_customer_visited_once: x[V1,D0,C7] + x[V1,C1,C7] + x[V1,C2,C7]
   + x[V1,C3,C7] + x[V1,C4,C7] + x[V1,C5,C7] + x[V1,C6,C7] + x[V1,C8,C7]
   + x[V1,C9,C7] + x[V1,C10,C7] + x[V2,D0,C7] + x[V2,C1,C7] + x[V2,C2,C7]
   + x[V2,C3,C7] + x[V2,C4,C7] + x[V2,C5,C7] + x[V2,C6,C7] + x[V2,C8,C7]
   + x[V2,C9,C7] + x[V2,C10,C7] = 1
 Each_customer_visited_once: x[V1,D0,C8] + x[V1,C1,C8] + x[V1,C2,C8]
   + x[V1,C3,C8] + x[V1,C4,C8] + x[V1,C5,C8] + x[V1,C6,C8] + x[V1,C7,C8]
   + x[V1,C9,C8] + x[V1,C10,C8] + x[V2,D0,C8] + x[V2,C1,C8] + x[V2,C2,C8]
   + x[V2,C3,C8] + x[V2,C4,C8] + x[V2,C5,C8] + x[V2,C6,C8] + x[V2,C7,C8]
   + x[V2,C9,C8] + x[V2,C10,C8] = 1
 Each_customer_visited_once: x[V1,D0,C9] + x[V1,C1,C9] + x[V1,C2,C9]
   + x[V1,C3,C9] + x[V1,C4,C9] + x[V1,C5,C9] + x[V1,C6,C9] + x[V1,C7,C9]
   + x[V1,C8,C9] + x[V1,C10,C9] + x[V2,D0,C9] + x[V2,C1,C9] + x[V2,C2,C9]
   + x[V2,C3,C9] + x[V2,C4,C9] + x[V2,C5,C9] + x[V2,C6,C9] + x[V2,C7,C9]
   + x[V2,C8,C9] + x[V2,C10,C9] = 1
 Each_customer_visited_once: x[V1,D0,C10] + x[V1,C1,C10] + x[V1,C2,C10]
   + x[V1,C3,C10] + x[V1,C4,C10] + x[V1,C5,C10] + x[V1,C6,C10]
   + x[V1,C7,C10] + x[V1,C8,C10] + x[V1,C9,C10] + x[V2,D0,C10]
   + x[V2,C1,C10] + x[V2,C2,C10] + x[V2,C3,C10] + x[V2,C4,C10]
   + x[V2,C5,C10] + x[V2,C6,C10] + x[V2,C7,C10] + x[V2,C8,C10]
   + x[V2,C9,C10] = 1
 Truck_leaves_depot_V1: x[V1,D0,C1] + x[V1,D0,C2] + x[V1,D0,C3]
   + x[V1,D0,C4] + x[V1,D0,C5] + x[V1,D0,C6] + x[V1,D0,C7] + x[V1,D0,C8]
   + x[V1,D0,C9] + x[V1,D0,C10] = 1
 Truck_leaves_depot_V2: x[V2,D0,C1] + x[V2,D0,C2] + x[V2,D0,C3]
   + x[V2,D0,C4] + x[V2,D0,C5] + x[V2,D0,C6] + x[V2,D0,C7] + x[V2,D0,C8]
   + x[V2,D0,C9] + x[V2,D0,C10] = 1
 Truck_leaves_depot_V1: x[V1,C1,D0] + x[V1,C2,D0] + x[V1,C3,D0]
   + x[V1,C4,D0] + x[V1,C5,D0] + x[V1,C6,D0] + x[V1,C7,D0] + x[V1,C8,D0]
   + x[V1,C9,D0] + x[V1,C10,D0] = 1
 Truck_leaves_depot_V2: x[V2,C1,D0] + x[V2,C2,D0] + x[V2,C3,D0]
   + x[V2,C4,D0] + x[V2,C5,D0] + x[V2,C6,D0] + x[V2,C7,D0] + x[V2,C8,D0]
   + x[V2,C9,D0] + x[V2,C10,D0] = 1
 Flow_balance_V1_C1: - x[V1,D0,C1] + x[V1,C1,D0] + x[V1,C1,C2]
   + x[V1,C1,C3] + x[V1,C1,C4] + x[V1,C1,C5] + x[V1,C1,C6] + x[V1,C1,C7]
   + x[V1,C1,C8] + x[V1,C1,C9] + x[V1,C1,C10] - x[V1,C2,C1] - x[V1,C3,C1]
   - x[V1,C4,C1] - x[V1,C5,C1] - x[V1,C6,C1] - x[V1,C7,C1] - x[V1,C8,C1]
   - x[V1,C9,C1] - x[V1,C10,C1] = 0
 Flow_balance_V1_C2: - x[V1,D0,C2] - x[V1,C1,C2] + x[V1,C2,D0]
   + x[V1,C2,C1] + x[V1,C2,C3] + x[V1,C2,C4] + x[V1,C2,C5] + x[V1,C2,C6]
   + x[V1,C2,C7] + x[V1,C2,C8] + x[V1,C2,C9] + x[V1,C2,C10] - x[V1,C3,C2]
   - x[V1,C4,C2] - x[V1,C5,C2] - x[V1,C6,C2] - x[V1,C7,C2] - x[V1,C8,C2]
   - x[V1,C9,C2] - x[V1,C10,C2] = 0
 Flow_balance_V1_C3: - x[V1,D0,C3] - x[V1,C1,C3] - x[V1,C2,C3]
   + x[V1,C3,D0] + x[V1,C3,C1] + x[V1,C3,C2] + x[V1,C3,C4] + x[V1,C3,C5]
   + x[V1,C3,C6] + x[V1,C3,C7] + x[V1,C3,C8] + x[V1,C3,C9] + x[V1,C3,C10]
   - x[V1,C4,C3] - x[V1,C5,C3] - x[V1,C6,C3] - x[V1,C7,C3] - x[V1,C8,C3]
   - x[V1,C9,C3] - x[V1,C10,C3] = 0
 Flow_balance_V1_C4: - x[V1,D0,C4] - x[V1,C1,C4] - x[V1,C2,C4]
   - x[V1,C3,C4] + x[V1,C4,D0] + x[V1,C4,C1] + x[V1,C4,C2] + x[V1,C4,C3]
   + x[V1,C4,C5] + x[V1,C4,C6] + x[V1,C4,C7] + x[V1,C4,C8] + x[V1,C4,C9]
   + x[V1,C4,C10] - x[V1,C5,C4] - x[V1,C6,C4] - x[V1,C7,C4] - x[V1,C8,C4]
   - x[V1,C9,C4] - x[V1,C10,C4] = 0
 Flow_balance_V1_C5: - x[V1,D0,C5] - x[V1,C1,C5] - x[V1,C2,C5]
   - x[V1,C3,C5] - x[V1,C4,C5] + x[V1,C5,D0] + x[V1,C5,C1] + x[V1,C5,C2]
   + x[V1,C5,C3] + x[V1,C5,C4] + x[V1,C5,C6] + x[V1,C5,C7] + x[V1,C5,C8]
   + x[V1,C5,C9] + x[V1,C5,C10] - x[V1,C6,C5] - x[V1,C7,C5] - x[V1,C8,C5]
   - x[V1,C9,C5] - x[V1,C10,C5] = 0
 Flow_balance_V1_C6: - x[V1,D0,C6] - x[V1,C1,C6] - x[V1,C2,C6]
   - x[V1,C3,C6] - x[V1,C4,C6] - x[V1,C5,C6] + x[V1,C6,D0] + x[V1,C6,C1]
   + x[V1,C6,C2] + x[V1,C6,C3] + x[V1,C6,C4] + x[V1,C6,C5] + x[V1,C6,C7]
   + x[V1,C6,C8] + x[V1,C6,C9] + x[V1,C6,C10] - x[V1,C7,C6] - x[V1,C8,C6]
   - x[V1,C9,C6] - x[V1,C10,C6] = 0
 Flow_balance_V1_C7: - x[V1,D0,C7] - x[V1,C1,C7] - x[V1,C2,C7]
   - x[V1,C3,C7] - x[V1,C4,C7] - x[V1,C5,C7] - x[V1,C6,C7] + x[V1,C7,D0]
   + x[V1,C7,C1] + x[V1,C7,C2] + x[V1,C7,C3] + x[V1,C7,C4] + x[V1,C7,C5]
   + x[V1,C7,C6] + x[V1,C7,C8] + x[V1,C7,C9] + x[V1,C7,C10] - x[V1,C8,C7]
   - x[V1,C9,C7] - x[V1,C10,C7] = 0
 Flow_balance_V1_C8: - x[V1,D0,C8] - x[V1,C1,C8] - x[V1,C2,C8]
   - x[V1,C3,C8] - x[V1,C4,C8] - x[V1,C5,C8] - x[V1,C6,C8] - x[V1,C7,C8]
   + x[V1,C8,D0] + x[V1,C8,C1] + x[V1,C8,C2] + x[V1,C8,C3] + x[V1,C8,C4]
   + x[V1,C8,C5] + x[V1,C8,C6] + x[V1,C8,C7] + x[V1,C8,C9] + x[V1,C8,C10]
   - x[V1,C9,C8] - x[V1,C10,C8] = 0
 Flow_balance_V1_C9: - x[V1,D0,C9] - x[V1,C1,C9] - x[V1,C2,C9]
   - x[V1,C3,C9] - x[V1,C4,C9] - x[V1,C5,C9] - x[V1,C6,C9] - x[V1,C7,C9]
   - x[V1,C8,C9] + x[V1,C9,D0] + x[V1,C9,C1] + x[V1,C9,C2] + x[V1,C9,C3]
   + x[V1,C9,C4] + x[V1,C9,C5] + x[V1,C9,C6] + x[V1,C9,C7] + x[V1,C9,C8]
   + x[V1,C9,C10] - x[V1,C10,C9] = 0
 Flow_balance_V1_C10: - x[V1,D0,C10] - x[V1,C1,C10] - x[V1,C2,C10]
   - x[V1,C3,C10] - x[V1,C4,C10] - x[V1,C5,C10] - x[V1,C6,C10]
   - x[V1,C7,C10] - x[V1,C8,C10] - x[V1,C9,C10] + x[V1,C10,D0]
   + x[V1,C10,C1] + x[V1,C10,C2] + x[V1,C10,C3] + x[V1,C10,C4]
   + x[V1,C10,C5] + x[V1,C10,C6] + x[V1,C10,C7] + x[V1,C10,C8]
   + x[V1,C10,C9] = 0
 Flow_balance_V2_C1: - x[V2,D0,C1] + x[V2,C1,D0] + x[V2,C1,C2]
   + x[V2,C1,C3] + x[V2,C1,C4] + x[V2,C1,C5] + x[V2,C1,C6] + x[V2,C1,C7]
   + x[V2,C1,C8] + x[V2,C1,C9] + x[V2,C1,C10] - x[V2,C2,C1] - x[V2,C3,C1]
   - x[V2,C4,C1] - x[V2,C5,C1] - x[V2,C6,C1] - x[V2,C7,C1] - x[V2,C8,C1]
   - x[V2,C9,C1] - x[V2,C10,C1] = 0
 Flow_balance_V2_C2: - x[V2,D0,C2] - x[V2,C1,C2] + x[V2,C2,D0]
   + x[V2,C2,C1] + x[V2,C2,C3] + x[V2,C2,C4] + x[V2,C2,C5] + x[V2,C2,C6]
   + x[V2,C2,C7] + x[V2,C2,C8] + x[V2,C2,C9] + x[V2,C2,C10] - x[V2,C3,C2]
   - x[V2,C4,C2] - x[V2,C5,C2] - x[V2,C6,C2] - x[V2,C7,C2] - x[V2,C8,C2]
   - x[V2,C9,C2] - x[V2,C10,C2] = 0
 Flow_balance_V2_C3: - x[V2,D0,C3] - x[V2,C1,C3] - x[V2,C2,C3]
   + x[V2,C3,D0] + x[V2,C3,C1] + x[V2,C3,C2] + x[V2,C3,C4] + x[V2,C3,C5]
   + x[V2,C3,C6] + x[V2,C3,C7] + x[V2,C3,C8] + x[V2,C3,C9] + x[V2,C3,C10]
   - x[V2,C4,C3] - x[V2,C5,C3] - x[V2,C6,C3] - x[V2,C7,C3] - x[V2,C8,C3]
   - x[V2,C9,C3] - x[V2,C10,C3] = 0
 Flow_balance_V2_C4: - x[V2,D0,C4] - x[V2,C1,C4] - x[V2,C2,C4]
   - x[V2,C3,C4] + x[V2,C4,D0] + x[V2,C4,C1] + x[V2,C4,C2] + x[V2,C4,C3]
   + x[V2,C4,C5] + x[V2,C4,C6] + x[V2,C4,C7] + x[V2,C4,C8] + x[V2,C4,C9]
   + x[V2,C4,C10] - x[V2,C5,C4] - x[V2,C6,C4] - x[V2,C7,C4] - x[V2,C8,C4]
   - x[V2,C9,C4] - x[V2,C10,C4] = 0
 Flow_balance_V2_C5: - x[V2,D0,C5] - x[V2,C1,C5] - x[V2,C2,C5]
   - x[V2,C3,C5] - x[V2,C4,C5] + x[V2,C5,D0] + x[V2,C5,C1] + x[V2,C5,C2]
   + x[V2,C5,C3] + x[V2,C5,C4] + x[V2,C5,C6] + x[V2,C5,C7] + x[V2,C5,C8]
   + x[V2,C5,C9] + x[V2,C5,C10] - x[V2,C6,C5] - x[V2,C7,C5] - x[V2,C8,C5]
   - x[V2,C9,C5] - x[V2,C10,C5] = 0
 Flow_balance_V2_C6: - x[V2,D0,C6] - x[V2,C1,C6] - x[V2,C2,C6]
   - x[V2,C3,C6] - x[V2,C4,C6] - x[V2,C5,C6] + x[V2,C6,D0] + x[V2,C6,C1]
   + x[V2,C6,C2] + x[V2,C6,C3] + x[V2,C6,C4] + x[V2,C6,C5] + x[V2,C6,C7]
   + x[V2,C6,C8] + x[V2,C6,C9] + x[V2,C6,C10] - x[V2,C7,C6] - x[V2,C8,C6]
   - x[V2,C9,C6] - x[V2,C10,C6] = 0
 Flow_balance_V2_C7: - x[V2,D0,C7] - x[V2,C1,C7] - x[V2,C2,C7]
   - x[V2,C3,C7] - x[V2,C4,C7] - x[V2,C5,C7] - x[V2,C6,C7] + x[V2,C7,D0]
   + x[V2,C7,C1] + x[V2,C7,C2] + x[V2,C7,C3] + x[V2,C7,C4] + x[V2,C7,C5]
   + x[V2,C7,C6] + x[V2,C7,C8] + x[V2,C7,C9] + x[V2,C7,C10] - x[V2,C8,C7]
   - x[V2,C9,C7] - x[V2,C10,C7] = 0
 Flow_balance_V2_C8: - x[V2,D0,C8] - x[V2,C1,C8] - x[V2,C2,C8]
   - x[V2,C3,C8] - x[V2,C4,C8] - x[V2,C5,C8] - x[V2,C6,C8] - x[V2,C7,C8]
   + x[V2,C8,D0] + x[V2,C8,C1] + x[V2,C8,C2] + x[V2,C8,C3] + x[V2,C8,C4]
   + x[V2,C8,C5] + x[V2,C8,C6] + x[V2,C8,C7] + x[V2,C8,C9] + x[V2,C8,C10]
   - x[V2,C9,C8] - x[V2,C10,C8] = 0
 Flow_balance_V2_C9: - x[V2,D0,C9] - x[V2,C1,C9] - x[V2,C2,C9]
   - x[V2,C3,C9] - x[V2,C4,C9] - x[V2,C5,C9] - x[V2,C6,C9] - x[V2,C7,C9]
   - x[V2,C8,C9] + x[V2,C9,D0] + x[V2,C9,C1] + x[V2,C9,C2] + x[V2,C9,C3]
   + x[V2,C9,C4] + x[V2,C9,C5] + x[V2,C9,C6] + x[V2,C9,C7] + x[V2,C9,C8]
   + x[V2,C9,C10] - x[V2,C10,C9] = 0
 Flow_balance_V2_C10: - x[V2,D0,C10] - x[V2,C1,C10] - x[V2,C2,C10]
   - x[V2,C3,C10] - x[V2,C4,C10] - x[V2,C5,C10] - x[V2,C6,C10]
   - x[V2,C7,C10] - x[V2,C8,C10] - x[V2,C9,C10] + x[V2,C10,D0]
   + x[V2,C10,C1] + x[V2,C10,C2] + x[V2,C10,C3] + x[V2,C10,C4]
   + x[V2,C10,C5] + x[V2,C10,C6] + x[V2,C10,C7] + x[V2,C10,C8]
   + x[V2,C10,C9] = 0
 Time_V1_D0_C1: - 3600 x[V1,D0,C1] - t[V1,D0] + t[V1,C1]
   >= -3599.641666666667
 Time_V1_D0_C2: - 3600 x[V1,D0,C2] - t[V1,D0] + t[V1,C2]
   >= -3599.563333333334
 Time_V1_D0_C3: - 3600 x[V1,D0,C3] - t[V1,D0] + t[V1,C3] >= -3599.475
 Time_V1_D0_C4: - 3600 x[V1,D0,C4] - t[V1,D0] + t[V1,C4]
   >= -3599.746666666666
 Time_V1_D0_C5: - 3600 x[V1,D0,C5] - t[V1,D0] + t[V1,C5]
   >= -3599.636666666667
 Time_V1_D0_C6: - 3600 x[V1,D0,C6] - t[V1,D0] + t[V1,C6]
   >= -3599.916666666667
 Time_V1_D0_C7: - 3600 x[V1,D0,C7] - t[V1,D0] + t[V1,C7]
   >= -3599.596666666667
 Time_V1_D0_C8: - 3600 x[V1,D0,C8] - t[V1,D0] + t[V1,C8]
   >= -3599.801666666667
 Time_V1_D0_C9: - 3600 x[V1,D0,C9] - t[V1,D0] + t[V1,C9]
   >= -3599.791666666667
 Time_V1_D0_C10: - 3600 x[V1,D0,C10] - t[V1,D0] + t[V1,C10]
   >= -3599.831666666666
 Time_V1_C1_D0: - 3600 x[V1,C1,D0] + t[V1,D0] - t[V1,C1]
   >= -3599.641666666667
 Time_V1_C1_C2: - 3600 x[V1,C1,C2] - t[V1,C1] + t[V1,C2]
   >= -3599.891666666667
 Time_V1_C1_C3: - 3600 x[V1,C1,C3] - t[V1,C1] + t[V1,C3]
   >= -3599.803333333333
 Time_V1_C1_C4: - 3600 x[V1,C1,C4] - t[V1,C1] + t[V1,C4]
   >= -3599.498333333333
 Time_V1_C1_C5: - 3600 x[V1,C1,C5] - t[V1,C1] + t[V1,C5]
   >= -3599.951666666667
 Time_V1_C1_C6: - 3600 x[V1,C1,C6] - t[V1,C1] + t[V1,C6]
   >= -3599.721666666667
 Time_V1_C1_C7: - 3600 x[V1,C1,C7] - t[V1,C1] + t[V1,C7]
   >= -3599.718333333333
 Time_V1_C1_C8: - 3600 x[V1,C1,C8] - t[V1,C1] + t[V1,C8] >= -3599.72
 Time_V1_C1_C9: - 3600 x[V1,C1,C9] - t[V1,C1] + t[V1,C9] >= -3599.85
 Time_V1_C1_C10: - 3600 x[V1,C1,C10] - t[V1,C1] + t[V1,C10] >= -3599.71
 Time_V1_C2_D0: - 3600 x[V1,C2,D0] + t[V1,D0] - t[V1,C2]
   >= -3599.563333333334
 Time_V1_C2_C1: - 3600 x[V1,C2,C1] + t[V1,C1] - t[V1,C2]
   >= -3599.891666666667
 Time_V1_C2_C3: - 3600 x[V1,C2,C3] - t[V1,C2] + t[V1,C3]
   >= -3599.911666666667
 Time_V1_C2_C4: - 3600 x[V1,C2,C4] - t[V1,C2] + t[V1,C4]
   >= -3599.466666666667
 Time_V1_C2_C5: - 3600 x[V1,C2,C5] - t[V1,C2] + t[V1,C5]
   >= -3599.843333333333
 Time_V1_C2_C6: - 3600 x[V1,C2,C6] - t[V1,C2] + t[V1,C6]
   >= -3599.613333333333
 Time_V1_C2_C7: - 3600 x[V1,C2,C7] - t[V1,C2] + t[V1,C7]
   >= -3599.686666666666
 Time_V1_C2_C8: - 3600 x[V1,C2,C8] - t[V1,C2] + t[V1,C8]
   >= -3599.688333333334
 Time_V1_C2_C9: - 3600 x[V1,C2,C9] - t[V1,C2] + t[V1,C9]
   >= -3599.761666666667
 Time_V1_C2_C10: - 3600 x[V1,C2,C10] - t[V1,C2] + t[V1,C10]
   >= -3599.678333333333
 Time_V1_C3_D0: - 3600 x[V1,C3,D0] + t[V1,D0] - t[V1,C3] >= -3599.475
 Time_V1_C3_C1: - 3600 x[V1,C3,C1] + t[V1,C1] - t[V1,C3]
   >= -3599.803333333333
 Time_V1_C3_C2: - 3600 x[V1,C3,C2] + t[V1,C2] - t[V1,C3]
   >= -3599.911666666667
 Time_V1_C3_C4: - 3600 x[V1,C3,C4] - t[V1,C3] + t[V1,C4]
   >= -3599.541666666667
 Time_V1_C3_C5: - 3600 x[V1,C3,C5] - t[V1,C3] + t[V1,C5] >= -3599.755
 Time_V1_C3_C6: - 3600 x[V1,C3,C6] - t[V1,C3] + t[V1,C6] >= -3599.525
 Time_V1_C3_C7: - 3600 x[V1,C3,C7] - t[V1,C3] + t[V1,C7]
   >= -3599.761666666667
 Time_V1_C3_C8: - 3600 x[V1,C3,C8] - t[V1,C3] + t[V1,C8]
   >= -3599.673333333333
 Time_V1_C3_C9: - 3600 x[V1,C3,C9] - t[V1,C3] + t[V1,C9]
   >= -3599.673333333333
 Time_V1_C3_C10: - 3600 x[V1,C3,C10] - t[V1,C3] + t[V1,C10]
   >= -3599.643333333333
 Time_V1_C4_D0: - 3600 x[V1,C4,D0] + t[V1,D0] - t[V1,C4]
   >= -3599.746666666666
 Time_V1_C4_C1: - 3600 x[V1,C4,C1] + t[V1,C1] - t[V1,C4]
   >= -3599.498333333333
 Time_V1_C4_C2: - 3600 x[V1,C4,C2] + t[V1,C2] - t[V1,C4]
   >= -3599.466666666667
 Time_V1_C4_C3: - 3600 x[V1,C4,C3] + t[V1,C3] - t[V1,C4]
   >= -3599.541666666667
 Time_V1_C4_C5: - 3600 x[V1,C4,C5] - t[V1,C4] + t[V1,C5]
   >= -3599.493333333333
 Time_V1_C4_C6: - 3600 x[V1,C4,C6] - t[V1,C4] + t[V1,C6]
   >= -3599.773333333334
 Time_V1_C4_C7: - 3600 x[V1,C4,C7] - t[V1,C4] + t[V1,C7] >= -3599.78
 Time_V1_C4_C8: - 3600 x[V1,C4,C8] - t[V1,C4] + t[V1,C8]
   >= -3599.778333333333
 Time_V1_C4_C9: - 3600 x[V1,C4,C9] - t[V1,C4] + t[V1,C9]
   >= -3599.648333333334
 Time_V1_C4_C10: - 3600 x[V1,C4,C10] - t[V1,C4] + t[V1,C10]
   >= -3599.788333333333
 Time_V1_C5_D0: - 3600 x[V1,C5,D0] + t[V1,D0] - t[V1,C5]
   >= -3599.636666666667
 Time_V1_C5_C1: - 3600 x[V1,C5,C1] + t[V1,C1] - t[V1,C5]
   >= -3599.951666666667
 Time_V1_C5_C2: - 3600 x[V1,C5,C2] + t[V1,C2] - t[V1,C5]
   >= -3599.843333333333
 Time_V1_C5_C3: - 3600 x[V1,C5,C3] + t[V1,C3] - t[V1,C5] >= -3599.755
 Time_V1_C5_C4: - 3600 x[V1,C5,C4] + t[V1,C4] - t[V1,C5]
   >= -3599.493333333333
 Time_V1_C5_C6: - 3600 x[V1,C5,C6] - t[V1,C5] + t[V1,C6] >= -3599.72
 Time_V1_C5_C7: - 3600 x[V1,C5,C7] - t[V1,C5] + t[V1,C7]
   >= -3599.713333333333
 Time_V1_C5_C8: - 3600 x[V1,C5,C8] - t[V1,C5] + t[V1,C8] >= -3599.715
 Time_V1_C5_C9: - 3600 x[V1,C5,C9] - t[V1,C5] + t[V1,C9] >= -3599.845
 Time_V1_C5_C10: - 3600 x[V1,C5,C10] - t[V1,C5] + t[V1,C10] >= -3599.705
 Time_V1_C6_D0: - 3600 x[V1,C6,D0] + t[V1,D0] - t[V1,C6]
   >= -3599.916666666667
 Time_V1_C6_C1: - 3600 x[V1,C6,C1] + t[V1,C1] - t[V1,C6]
   >= -3599.721666666667
 Time_V1_C6_C2: - 3600 x[V1,C6,C2] + t[V1,C2] - t[V1,C6]
   >= -3599.613333333333
 Time_V1_C6_C3: - 3600 x[V1,C6,C3] + t[V1,C3] - t[V1,C6] >= -3599.525
 Time_V1_C6_C4: - 3600 x[V1,C6,C4] + t[V1,C4] - t[V1,C6]
   >= -3599.773333333334
 Time_V1_C6_C5: - 3600 x[V1,C6,C5] + t[V1,C5] - t[V1,C6] >= -3599.72
 Time_V1_C6_C7: - 3600 x[V1,C6,C7] - t[V1,C6] + t[V1,C7]
   >= -3599.646666666667
 Time_V1_C6_C8: - 3600 x[V1,C6,C8] - t[V1,C6] + t[V1,C8]
   >= -3599.851666666666
 Time_V1_C6_C9: - 3600 x[V1,C6,C9] - t[V1,C6] + t[V1,C9]
   >= -3599.851666666666
 Time_V1_C6_C10: - 3600 x[V1,C6,C10] - t[V1,C6] + t[V1,C10]
   >= -3599.881666666667
 Time_V1_C7_D0: - 3600 x[V1,C7,D0] + t[V1,D0] - t[V1,C7]
   >= -3599.596666666667
 Time_V1_C7_C1: - 3600 x[V1,C7,C1] + t[V1,C1] - t[V1,C7]
   >= -3599.718333333333
 Time_V1_C7_C2: - 3600 x[V1,C7,C2] + t[V1,C2] - t[V1,C7]
   >= -3599.686666666666
 Time_V1_C7_C3: - 3600 x[V1,C7,C3] + t[V1,C3] - t[V1,C7]
   >= -3599.761666666667
 Time_V1_C7_C4: - 3600 x[V1,C7,C4] + t[V1,C4] - t[V1,C7] >= -3599.78
 Time_V1_C7_C5: - 3600 x[V1,C7,C5] + t[V1,C5] - t[V1,C7]
   >= -3599.713333333333
 Time_V1_C7_C6: - 3600 x[V1,C7,C6] + t[V1,C6] - t[V1,C7]
   >= -3599.646666666667
 Time_V1_C7_C8: - 3600 x[V1,C7,C8] - t[V1,C7] + t[V1,C8] >= -3599.795
 Time_V1_C7_C9: - 3600 x[V1,C7,C9] - t[V1,C7] + t[V1,C9] >= -3599.795
 Time_V1_C7_C10: - 3600 x[V1,C7,C10] - t[V1,C7] + t[V1,C10] >= -3599.765
 Time_V1_C8_D0: - 3600 x[V1,C8,D0] + t[V1,D0] - t[V1,C8]
   >= -3599.801666666667
 Time_V1_C8_C1: - 3600 x[V1,C8,C1] + t[V1,C1] - t[V1,C8] >= -3599.72
 Time_V1_C8_C2: - 3600 x[V1,C8,C2] + t[V1,C2] - t[V1,C8]
   >= -3599.688333333334
 Time_V1_C8_C3: - 3600 x[V1,C8,C3] + t[V1,C3] - t[V1,C8]
   >= -3599.673333333333
 Time_V1_C8_C4: - 3600 x[V1,C8,C4] + t[V1,C4] - t[V1,C8]
   >= -3599.778333333333
 Time_V1_C8_C5: - 3600 x[V1,C8,C5] + t[V1,C5] - t[V1,C8] >= -3599.715
 Time_V1_C8_C6: - 3600 x[V1,C8,C6] + t[V1,C6] - t[V1,C8]
   >= -3599.851666666666
 Time_V1_C8_C7: - 3600 x[V1,C8,C7] + t[V1,C7] - t[V1,C8] >= -3599.795
 Time_V1_C8_C9: - 3600 x[V1,C8,C9] - t[V1,C8] + t[V1,C9] >= -3599.87
 Time_V1_C8_C10: - 3600 x[V1,C8,C10] - t[V1,C8] + t[V1,C10] >= -3599.97
 Time_V1_C9_D0: - 3600 x[V1,C9,D0] + t[V1,D0] - t[V1,C9]
   >= -3599.791666666667
 Time_V1_C9_C1: - 3600 x[V1,C9,C1] + t[V1,C1] - t[V1,C9] >= -3599.85
 Time_V1_C9_C2: - 3600 x[V1,C9,C2] + t[V1,C2] - t[V1,C9]
   >= -3599.761666666667
 Time_V1_C9_C3: - 3600 x[V1,C9,C3] + t[V1,C3] - t[V1,C9]
   >= -3599.673333333333
 Time_V1_C9_C4: - 3600 x[V1,C9,C4] + t[V1,C4] - t[V1,C9]
   >= -3599.648333333334
 Time_V1_C9_C5: - 3600 x[V1,C9,C5] + t[V1,C5] - t[V1,C9] >= -3599.845
 Time_V1_C9_C6: - 3600 x[V1,C9,C6] + t[V1,C6] - t[V1,C9]
   >= -3599.851666666666
 Time_V1_C9_C7: - 3600 x[V1,C9,C7] + t[V1,C7] - t[V1,C9] >= -3599.795
 Time_V1_C9_C8: - 3600 x[V1,C9,C8] + t[V1,C8] - t[V1,C9] >= -3599.87
 Time_V1_C9_C10: - 3600 x[V1,C9,C10] - t[V1,C9] + t[V1,C10] >= -3599.86
 Time_V1_C10_D0: - 3600 x[V1,C10,D0] + t[V1,D0] - t[V1,C10]
   >= -3599.831666666666
 Time_V1_C10_C1: - 3600 x[V1,C10,C1] + t[V1,C1] - t[V1,C10] >= -3599.71
 Time_V1_C10_C2: - 3600 x[V1,C10,C2] + t[V1,C2] - t[V1,C10]
   >= -3599.678333333333
 Time_V1_C10_C3: - 3600 x[V1,C10,C3] + t[V1,C3] - t[V1,C10]
   >= -3599.643333333333
 Time_V1_C10_C4: - 3600 x[V1,C10,C4] + t[V1,C4] - t[V1,C10]
   >= -3599.788333333333
 Time_V1_C10_C5: - 3600 x[V1,C10,C5] + t[V1,C5] - t[V1,C10] >= -3599.705
 Time_V1_C10_C6: - 3600 x[V1,C10,C6] + t[V1,C6] - t[V1,C10]
   >= -3599.881666666667
 Time_V1_C10_C7: - 3600 x[V1,C10,C7] + t[V1,C7] - t[V1,C10] >= -3599.765
 Time_V1_C10_C8: - 3600 x[V1,C10,C8] + t[V1,C8] - t[V1,C10] >= -3599.97
 Time_V1_C10_C9: - 3600 x[V1,C10,C9] + t[V1,C9] - t[V1,C10] >= -3599.86
 Time_V2_D0_C1: - 3600 x[V2,D0,C1] - t[V2,D0] + t[V2,C1]
   >= -3599.641666666667
 Time_V2_D0_C2: - 3600 x[V2,D0,C2] - t[V2,D0] + t[V2,C2]
   >= -3599.563333333334
 Time_V2_D0_C3: - 3600 x[V2,D0,C3] - t[V2,D0] + t[V2,C3] >= -3599.475
 Time_V2_D0_C4: - 3600 x[V2,D0,C4] - t[V2,D0] + t[V2,C4]
   >= -3599.746666666666
 Time_V2_D0_C5: - 3600 x[V2,D0,C5] - t[V2,D0] + t[V2,C5]
   >= -3599.636666666667
 Time_V2_D0_C6: - 3600 x[V2,D0,C6] - t[V2,D0] + t[V2,C6]
   >= -3599.916666666667
 Time_V2_D0_C7: - 3600 x[V2,D0,C7] - t[V2,D0] + t[V2,C7]
   >= -3599.596666666667
 Time_V2_D0_C8: - 3600 x[V2,D0,C8] - t[V2,D0] + t[V2,C8]
   >= -3599.801666666667
 Time_V2_D0_C9: - 3600 x[V2,D0,C9] - t[V2,D0] + t[V2,C9]
   >= -3599.791666666667
 Time_V2_D0_C10: - 3600 x[V2,D0,C10] - t[V2,D0] + t[V2,C10]
   >= -3599.831666666666
 Time_V2_C1_D0: - 3600 x[V2,C1,D0] + t[V2,D0] - t[V2,C1]
   >= -3599.641666666667
 Time_V2_C1_C2: - 3600 x[V2,C1,C2] - t[V2,C1] + t[V2,C2]
   >= -3599.891666666667
 Time_V2_C1_C3: - 3600 x[V2,C1,C3] - t[V2,C1] + t[V2,C3]
   >= -3599.803333333333
 Time_V2_C1_C4: - 3600 x[V2,C1,C4] - t[V2,C1] + t[V2,C4]
   >= -3599.498333333333
 Time_V2_C1_C5: - 3600 x[V2,C1,C5] - t[V2,C1] + t[V2,C5]
   >= -3599.951666666667
 Time_V2_C1_C6: - 3600 x[V2,C1,C6] - t[V2,C1] + t[V2,C6]
   >= -3599.721666666667
 Time_V2_C1_C7: - 3600 x[V2,C1,C7] - t[V2,C1] + t[V2,C7]
   >= -3599.718333333333
 Time_V2_C1_C8: - 3600 x[V2,C1,C8] - t[V2,C1] + t[V2,C8] >= -3599.72
 Time_V2_C1_C9: - 3600 x[V2,C1,C9] - t[V2,C1] + t[V2,C9] >= -3599.85
 Time_V2_C1_C10: - 3600 x[V2,C1,C10] - t[V2,C1] + t[V2,C10] >= -3599.71
 Time_V2_C2_D0: - 3600 x[V2,C2,D0] + t[V2,D0] - t[V2,C2]
   >= -3599.563333333334
 Time_V2_C2_C1: - 3600 x[V2,C2,C1] + t[V2,C1] - t[V2,C2]
   >= -3599.891666666667
 Time_V2_C2_C3: - 3600 x[V2,C2,C3] - t[V2,C2] + t[V2,C3]
   >= -3599.911666666667
 Time_V2_C2_C4: - 3600 x[V2,C2,C4] - t[V2,C2] + t[V2,C4]
   >= -3599.466666666667
 Time_V2_C2_C5: - 3600 x[V2,C2,C5] - t[V2,C2] + t[V2,C5]
   >= -3599.843333333333
 Time_V2_C2_C6: - 3600 x[V2,C2,C6] - t[V2,C2] + t[V2,C6]
   >= -3599.613333333333
 Time_V2_C2_C7: - 3600 x[V2,C2,C7] - t[V2,C2] + t[V2,C7]
   >= -3599.686666666666
 Time_V2_C2_C8: - 3600 x[V2,C2,C8] - t[V2,C2] + t[V2,C8]
   >= -3599.688333333334
 Time_V2_C2_C9: - 3600 x[V2,C2,C9] - t[V2,C2] + t[V2,C9]
   >= -3599.761666666667
 Time_V2_C2_C10: - 3600 x[V2,C2,C10] - t[V2,C2] + t[V2,C10]
   >= -3599.678333333333
 Time_V2_C3_D0: - 3600 x[V2,C3,D0] + t[V2,D0] - t[V2,C3] >= -3599.475
 Time_V2_C3_C1: - 3600 x[V2,C3,C1] + t[V2,C1] - t[V2,C3]
   >= -3599.803333333333
 Time_V2_C3_C2: - 3600 x[V2,C3,C2] + t[V2,C2] - t[V2,C3]
   >= -3599.911666666667
 Time_V2_C3_C4: - 3600 x[V2,C3,C4] - t[V2,C3] + t[V2,C4]
   >= -3599.541666666667
 Time_V2_C3_C5: - 3600 x[V2,C3,C5] - t[V2,C3] + t[V2,C5] >= -3599.755
 Time_V2_C3_C6: - 3600 x[V2,C3,C6] - t[V2,C3] + t[V2,C6] >= -3599.525
 Time_V2_C3_C7: - 3600 x[V2,C3,C7] - t[V2,C3] + t[V2,C7]
   >= -3599.761666666667
 Time_V2_C3_C8: - 3600 x[V2,C3,C8] - t[V2,C3] + t[V2,C8]
   >= -3599.673333333333
 Time_V2_C3_C9: - 3600 x[V2,C3,C9] - t[V2,C3] + t[V2,C9]
   >= -3599.673333333333
 Time_V2_C3_C10: - 3600 x[V2,C3,C10] - t[V2,C3] + t[V2,C10]
   >= -3599.643333333333
 Time_V2_C4_D0: - 3600 x[V2,C4,D0] + t[V2,D0] - t[V2,C4]
   >= -3599.746666666666
 Time_V2_C4_C1: - 3600 x[V2,C4,C1] + t[V2,C1] - t[V2,C4]
   >= -3599.498333333333
 Time_V2_C4_C2: - 3600 x[V2,C4,C2] + t[V2,C2] - t[V2,C4]
   >= -3599.466666666667
 Time_V2_C4_C3: - 3600 x[V2,C4,C3] + t[V2,C3] - t[V2,C4]
   >= -3599.541666666667
 Time_V2_C4_C5: - 3600 x[V2,C4,C5] - t[V2,C4] + t[V2,C5]
   >= -3599.493333333333
 Time_V2_C4_C6: - 3600 x[V2,C4,C6] - t[V2,C4] + t[V2,C6]
   >= -3599.773333333334
 Time_V2_C4_C7: - 3600 x[V2,C4,C7] - t[V2,C4] + t[V2,C7] >= -3599.78
 Time_V2_C4_C8: - 3600 x[V2,C4,C8] - t[V2,C4] + t[V2,C8]
   >= -3599.778333333333
 Time_V2_C4_C9: - 3600 x[V2,C4,C9] - t[V2,C4] + t[V2,C9]
   >= -3599.648333333334
 Time_V2_C4_C10: - 3600 x[V2,C4,C10] - t[V2,C4] + t[V2,C10]
   >= -3599.788333333333
 Time_V2_C5_D0: - 3600 x[V2,C5,D0] + t[V2,D0] - t[V2,C5]
   >= -3599.636666666667
 Time_V2_C5_C1: - 3600 x[V2,C5,C1] + t[V2,C1] - t[V2,C5]
   >= -3599.951666666667
 Time_V2_C5_C2: - 3600 x[V2,C5,C2] + t[V2,C2] - t[V2,C5]
   >= -3599.843333333333
 Time_V2_C5_C3: - 3600 x[V2,C5,C3] + t[V2,C3] - t[V2,C5] >= -3599.755
 Time_V2_C5_C4: - 3600 x[V2,C5,C4] + t[V2,C4] - t[V2,C5]
   >= -3599.493333333333
 Time_V2_C5_C6: - 3600 x[V2,C5,C6] - t[V2,C5] + t[V2,C6] >= -3599.72
 Time_V2_C5_C7: - 3600 x[V2,C5,C7] - t[V2,C5] + t[V2,C7]
   >= -3599.713333333333
 Time_V2_C5_C8: - 3600 x[V2,C5,C8] - t[V2,C5] + t[V2,C8] >= -3599.715
 Time_V2_C5_C9: - 3600 x[V2,C5,C9] - t[V2,C5] + t[V2,C9] >= -3599.845
 Time_V2_C5_C10: - 3600 x[V2,C5,C10] - t[V2,C5] + t[V2,C10] >= -3599.705
 Time_V2_C6_D0: - 3600 x[V2,C6,D0] + t[V2,D0] - t[V2,C6]
   >= -3599.916666666667
 Time_V2_C6_C1: - 3600 x[V2,C6,C1] + t[V2,C1] - t[V2,C6]
   >= -3599.721666666667
 Time_V2_C6_C2: - 3600 x[V2,C6,C2] + t[V2,C2] - t[V2,C6]
   >= -3599.613333333333
 Time_V2_C6_C3: - 3600 x[V2,C6,C3] + t[V2,C3] - t[V2,C6] >= -3599.525
 Time_V2_C6_C4: - 3600 x[V2,C6,C4] + t[V2,C4] - t[V2,C6]
   >= -3599.773333333334
 Time_V2_C6_C5: - 3600 x[V2,C6,C5] + t[V2,C5] - t[V2,C6] >= -3599.72
 Time_V2_C6_C7: - 3600 x[V2,C6,C7] - t[V2,C6] + t[V2,C7]
   >= -3599.646666666667
 Time_V2_C6_C8: - 3600 x[V2,C6,C8] - t[V2,C6] + t[V2,C8]
   >= -3599.851666666666
 Time_V2_C6_C9: - 3600 x[V2,C6,C9] - t[V2,C6] + t[V2,C9]
   >= -3599.851666666666
 Time_V2_C6_C10: - 3600 x[V2,C6,C10] - t[V2,C6] + t[V2,C10]
   >= -3599.881666666667
 Time_V2_C7_D0: - 3600 x[V2,C7,D0] + t[V2,D0] - t[V2,C7]
   >= -3599.596666666667
 Time_V2_C7_C1: - 3600 x[V2,C7,C1] + t[V2,C1] - t[V2,C7]
   >= -3599.718333333333
 Time_V2_C7_C2: - 3600 x[V2,C7,C2] + t[V2,C2] - t[V2,C7]
   >= -3599.686666666666
 Time_V2_C7_C3: - 3600 x[V2,C7,C3] + t[V2,C3] - t[V2,C7]
   >= -3599.761666666667
 Time_V2_C7_C4: - 3600 x[V2,C7,C4] + t[V2,C4] - t[V2,C7] >= -3599.78
 Time_V2_C7_C5: - 3600 x[V2,C7,C5] + t[V2,C5] - t[V2,C7]
   >= -3599.713333333333
 Time_V2_C7_C6: - 3600 x[V2,C7,C6] + t[V2,C6] - t[V2,C7]
   >= -3599.646666666667
 Time_V2_C7_C8: - 3600 x[V2,C7,C8] - t[V2,C7] + t[V2,C8] >= -3599.795
 Time_V2_C7_C9: - 3600 x[V2,C7,C9] - t[V2,C7] + t[V2,C9] >= -3599.795
 Time_V2_C7_C10: - 3600 x[V2,C7,C10] - t[V2,C7] + t[V2,C10] >= -3599.765
 Time_V2_C8_D0: - 3600 x[V2,C8,D0] + t[V2,D0] - t[V2,C8]
   >= -3599.801666666667
 Time_V2_C8_C1: - 3600 x[V2,C8,C1] + t[V2,C1] - t[V2,C8] >= -3599.72
 Time_V2_C8_C2: - 3600 x[V2,C8,C2] + t[V2,C2] - t[V2,C8]
   >= -3599.688333333334
 Time_V2_C8_C3: - 3600 x[V2,C8,C3] + t[V2,C3] - t[V2,C8]
   >= -3599.673333333333
 Time_V2_C8_C4: - 3600 x[V2,C8,C4] + t[V2,C4] - t[V2,C8]
   >= -3599.778333333333
 Time_V2_C8_C5: - 3600 x[V2,C8,C5] + t[V2,C5] - t[V2,C8] >= -3599.715
 Time_V2_C8_C6: - 3600 x[V2,C8,C6] + t[V2,C6] - t[V2,C8]
   >= -3599.851666666666
 Time_V2_C8_C7: - 3600 x[V2,C8,C7] + t[V2,C7] - t[V2,C8] >= -3599.795
 Time_V2_C8_C9: - 3600 x[V2,C8,C9] - t[V2,C8] + t[V2,C9] >= -3599.87
 Time_V2_C8_C10: - 3600 x[V2,C8,C10] - t[V2,C8] + t[V2,C10] >= -3599.97
 Time_V2_C9_D0: - 3600 x[V2,C9,D0] + t[V2,D0] - t[V2,C9]
   >= -3599.791666666667
 Time_V2_C9_C1: - 3600 x[V2,C9,C1] + t[V2,C1] - t[V2,C9] >= -3599.85
 Time_V2_C9_C2: - 3600 x[V2,C9,C2] + t[V2,C2] - t[V2,C9]
   >= -3599.761666666667
 Time_V2_C9_C3: - 3600 x[V2,C9,C3] + t[V2,C3] - t[V2,C9]
   >= -3599.673333333333
 Time_V2_C9_C4: - 3600 x[V2,C9,C4] + t[V2,C4] - t[V2,C9]
   >= -3599.648333333334
 Time_V2_C9_C5: - 3600 x[V2,C9,C5] + t[V2,C5] - t[V2,C9] >= -3599.845
 Time_V2_C9_C6: - 3600 x[V2,C9,C6] + t[V2,C6] - t[V2,C9]
   >= -3599.851666666666
 Time_V2_C9_C7: - 3600 x[V2,C9,C7] + t[V2,C7] - t[V2,C9] >= -3599.795
 Time_V2_C9_C8: - 3600 x[V2,C9,C8] + t[V2,C8] - t[V2,C9] >= -3599.87
 Time_V2_C9_C10: - 3600 x[V2,C9,C10] - t[V2,C9] + t[V2,C10] >= -3599.86
 Time_V2_C10_D0: - 3600 x[V2,C10,D0] + t[V2,D0] - t[V2,C10]
   >= -3599.831666666666
 Time_V2_C10_C1: - 3600 x[V2,C10,C1] + t[V2,C1] - t[V2,C10] >= -3599.71
 Time_V2_C10_C2: - 3600 x[V2,C10,C2] + t[V2,C2] - t[V2,C10]
   >= -3599.678333333333
 Time_V2_C10_C3: - 3600 x[V2,C10,C3] + t[V2,C3] - t[V2,C10]
   >= -3599.643333333333
 Time_V2_C10_C4: - 3600 x[V2,C10,C4] + t[V2,C4] - t[V2,C10]
   >= -3599.788333333333
 Time_V2_C10_C5: - 3600 x[V2,C10,C5] + t[V2,C5] - t[V2,C10] >= -3599.705
 Time_V2_C10_C6: - 3600 x[V2,C10,C6] + t[V2,C6] - t[V2,C10]
   >= -3599.881666666667
 Time_V2_C10_C7: - 3600 x[V2,C10,C7] + t[V2,C7] - t[V2,C10] >= -3599.765
 Time_V2_C10_C8: - 3600 x[V2,C10,C8] + t[V2,C8] - t[V2,C10] >= -3599.97
 Time_V2_C10_C9: - 3600 x[V2,C10,C9] + t[V2,C9] - t[V2,C10] >= -3599.86
Bounds
Binaries
 x[V1,D0,C1] x[V1,D0,C2] x[V1,D0,C3] x[V1,D0,C4] x[V1,D0,C5] x[V1,D0,C6]
 x[V1,D0,C7] x[V1,D0,C8] x[V1,D0,C9] x[V1,D0,C10] x[V1,C1,D0] x[V1,C1,C2]
 x[V1,C1,C3] x[V1,C1,C4] x[V1,C1,C5] x[V1,C1,C6] x[V1,C1,C7] x[V1,C1,C8]
 x[V1,C1,C9] x[V1,C1,C10] x[V1,C2,D0] x[V1,C2,C1] x[V1,C2,C3] x[V1,C2,C4]
 x[V1,C2,C5] x[V1,C2,C6] x[V1,C2,C7] x[V1,C2,C8] x[V1,C2,C9] x[V1,C2,C10]
 x[V1,C3,D0] x[V1,C3,C1] x[V1,C3,C2] x[V1,C3,C4] x[V1,C3,C5] x[V1,C3,C6]
 x[V1,C3,C7] x[V1,C3,C8] x[V1,C3,C9] x[V1,C3,C10] x[V1,C4,D0] x[V1,C4,C1]
 x[V1,C4,C2] x[V1,C4,C3] x[V1,C4,C5] x[V1,C4,C6] x[V1,C4,C7] x[V1,C4,C8]
 x[V1,C4,C9] x[V1,C4,C10] x[V1,C5,D0] x[V1,C5,C1] x[V1,C5,C2] x[V1,C5,C3]
 x[V1,C5,C4] x[V1,C5,C6] x[V1,C5,C7] x[V1,C5,C8] x[V1,C5,C9] x[V1,C5,C10]
 x[V1,C6,D0] x[V1,C6,C1] x[V1,C6,C2] x[V1,C6,C3] x[V1,C6,C4] x[V1,C6,C5]
 x[V1,C6,C7] x[V1,C6,C8] x[V1,C6,C9] x[V1,C6,C10] x[V1,C7,D0] x[V1,C7,C1]
 x[V1,C7,C2] x[V1,C7,C3] x[V1,C7,C4] x[V1,C7,C5] x[V1,C7,C6] x[V1,C7,C8]
 x[V1,C7,C9] x[V1,C7,C10] x[V1,C8,D0] x[V1,C8,C1] x[V1,C8,C2] x[V1,C8,C3]
 x[V1,C8,C4] x[V1,C8,C5] x[V1,C8,C6] x[V1,C8,C7] x[V1,C8,C9] x[V1,C8,C10]
 x[V1,C9,D0] x[V1,C9,C1] x[V1,C9,C2] x[V1,C9,C3] x[V1,C9,C4] x[V1,C9,C5]
 x[V1,C9,C6] x[V1,C9,C7] x[V1,C9,C8] x[V1,C9,C10] x[V1,C10,D0] x[V1,C10,C1]
 x[V1,C10,C2] x[V1,C10,C3] x[V1,C10,C4] x[V1,C10,C5] x[V1,C10,C6]
 x[V1,C10,C7] x[V1,C10,C8] x[V1,C10,C9] x[V2,D0,C1] x[V2,D0,C2] x[V2,D0,C3]
 x[V2,D0,C4] x[V2,D0,C5] x[V2,D0,C6] x[V2,D0,C7] x[V2,D0,C8] x[V2,D0,C9]
 x[V2,D0,C10] x[V2,C1,D0] x[V2,C1,C2] x[V2,C1,C3] x[V2,C1,C4] x[V2,C1,C5]
 x[V2,C1,C6] x[V2,C1,C7] x[V2,C1,C8] x[V2,C1,C9] x[V2,C1,C10] x[V2,C2,D0]
 x[V2,C2,C1] x[V2,C2,C3] x[V2,C2,C4] x[V2,C2,C5] x[V2,C2,C6] x[V2,C2,C7]
 x[V2,C2,C8] x[V2,C2,C9] x[V2,C2,C10] x[V2,C3,D0] x[V2,C3,C1] x[V2,C3,C2]
 x[V2,C3,C4] x[V2,C3,C5] x[V2,C3,C6] x[V2,C3,C7] x[V2,C3,C8] x[V2,C3,C9]
 x[V2,C3,C10] x[V2,C4,D0] x[V2,C4,C1] x[V2,C4,C2] x[V2,C4,C3] x[V2,C4,C5]
 x[V2,C4,C6] x[V2,C4,C7] x[V2,C4,C8] x[V2,C4,C9] x[V2,C4,C10] x[V2,C5,D0]
 x[V2,C5,C1] x[V2,C5,C2] x[V2,C5,C3] x[V2,C5,C4] x[V2,C5,C6] x[V2,C5,C7]
 x[V2,C5,C8] x[V2,C5,C9] x[V2,C5,C10] x[V2,C6,D0] x[V2,C6,C1] x[V2,C6,C2]
 x[V2,C6,C3] x[V2,C6,C4] x[V2,C6,C5] x[V2,C6,C7] x[V2,C6,C8] x[V2,C6,C9]
 x[V2,C6,C10] x[V2,C7,D0] x[V2,C7,C1] x[V2,C7,C2] x[V2,C7,C3] x[V2,C7,C4]
 x[V2,C7,C5] x[V2,C7,C6] x[V2,C7,C8] x[V2,C7,C9] x[V2,C7,C10] x[V2,C8,D0]
 x[V2,C8,C1] x[V2,C8,C2] x[V2,C8,C3] x[V2,C8,C4] x[V2,C8,C5] x[V2,C8,C6]
 x[V2,C8,C7] x[V2,C8,C9] x[V2,C8,C10] x[V2,C9,D0] x[V2,C9,C1] x[V2,C9,C2]
 x[V2,C9,C3] x[V2,C9,C4] x[V2,C9,C5] x[V2,C9,C6] x[V2,C9,C7] x[V2,C9,C8]
 x[V2,C9,C10] x[V2,C10,D0] x[V2,C10,C1] x[V2,C10,C2] x[V2,C10,C3]
 x[V2,C10,C4] x[V2,C10,C5] x[V2,C10,C6] x[V2,C10,C7] x[V2,C10,C8]
 x[V2,C10,C9] y[V1] y[V2]
End
